<instance format="XCSP3" type="CSP">
  <variables>
    <array id="p" note="p[i][j] is one of the position of the jth value of the ith 3-combination" size="[4][8]"> 0..7 </array>
    <array id="v" note="v[i][j] is the jth value of the ith 3-combination" size="[4][8]"> 0..7 </array>
  </variables>
  <constraints>
    <group note="all values must be present in each 3-combination">
      <allDifferent> %... </allDifferent>
      <args> p[0][] </args>
      <args> p[1][] </args>
      <args> p[2][] </args>
      <args> p[3][] </args>
    </group>
    <channel>
      <list> p[0][] </list>
      <list> v[0][] </list>
    </channel>
    <channel>
      <list> p[1][] </list>
      <list> v[1][] </list>
    </channel>
    <channel>
      <list> p[2][] </list>
      <list> v[2][] </list>
    </channel>
    <channel>
      <list> p[3][] </list>
      <list> v[3][] </list>
    </channel>
    <group note="computing values">
      <extension>
        <list> %... </list>
        <supports> (0,0,0,0)(0,1,1,1)(1,0,2,2)(1,1,3,3)(2,2,0,4)(2,3,1,5)(3,2,2,6)(3,3,3,7)(4,4,4,0)(4,5,5,1)(5,4,6,2)(5,5,7,3)(6,6,4,4)(6,7,5,5)(7,6,6,6)(7,7,7,7) </supports>
      </extension>
      <args> v[][0] </args>
      <args> v[][1] </args>
      <args> v[][2] </args>
      <args> v[][3] </args>
      <args> v[][4] </args>
      <args> v[][5] </args>
      <args> v[][6] </args>
      <args> v[][7] </args>
    </group>
  </constraints>
</instance>
